# Objective value = 1.9711356994241287e+03
x[0] 0
x[1] 0
x[2] 1
x[3] 1
x[4] 1
x[5] 0
x[6] 0
x[7] 1
x[8] 1
x[9] 0
x[10] 0
x[11] 1
x[12] 0
x[13] 1
x[14] 0
x[15] 0
x[16] 0
x[17] 1
x[18] 0
x[19] 1
x[20] 1
x[21] 0
x[22] 1
x[23] 0
x[24] 1
x[25] 1
x[26] 0
x[27] 0
x[28] 1
x[29] 0
x[30] 1
x[31] 0
x[32] 0
x[33] 1
x[34] 1
x[35] 1
x[36] 0
x[37] 0
x[38] 0
x[39] 1
x[40] 1
x[41] 1
x[42] 0
x[43] 1
x[44] 1
x[45] 1
x[46] 1
x[47] 0
x[48] 1
x[49] 1
x[50] 0
x[51] 1
x[52] 0
x[53] 0
x[54] 1
x[55] 0
x[56] 0
x[57] 0
x[58] 1
x[59] 0
x[60] 1
x[61] 0
x[62] 1
x[63] 0
x[64] 1
x[65] 1
x[66] 0
x[67] 1
x[68] 1
x[69] 1
x[70] 0
x[71] 1
x[72] 0
x[73] 0
x[74] 0
x[75] 1
x[76] 1
x[77] 1
x[78] 0
x[79] 0
x[80] 0
x[81] 1
x[82] 0
x[83] 0
x[84] 1
x[85] 0
x[86] 1
x[87] 1
x[88] 0
x[89] 0
x[90] 0
x[91] 1
x[92] 1
x[93] 1
x[94] 1
x[95] 1
x[96] 1
x[97] 1
x[98] 0
x[99] 1
x[100] 1
x[101] 1
x[102] 0
x[103] 1
x[104] 0
x[105] 1
x[106] 0
x[107] 0
x[108] 0
x[109] 1
x[110] 1
x[111] 0
x[112] 1
x[113] 0
x[114] 0
x[115] 1
x[116] 0
x[117] 1
x[118] 1
x[119] 1
x[120] 1
x[121] 0
x[122] 0
x[123] 0
x[124] 0
x[125] 0
x[126] 1
x[127] 1
x[128] 1
x[129] 0
x[130] 0
x[131] 1
x[132] 0
x[133] 1
x[134] 1
x[135] 1
x[136] 1
x[137] 1
x[138] 1
x[139] 0
x[140] 0
x[141] 0
x[142] 1
x[143] 0
x[144] 0
x[145] 0
x[146] 0
x[147] 0
x[148] 1
x[149] 0
x[150] 0
x[151] 1
x[152] 0
x[153] 0
x[154] 0
x[155] 0
x[156] 0
x[157] 1
x[158] 1
x[159] 0
x[160] 1
x[161] 1
x[162] 1
x[163] 1
x[164] 0
x[165] 0
x[166] 1
x[167] 0
x[168] 0
x[169] 0
x[170] 1
x[171] 0
x[172] 0
x[173] 0
x[174] 1
x[175] 1
x[176] 0
x[177] 0
x[178] 0
x[179] 0
x[180] 0
x[181] 1
x[182] 1
x[183] 1
x[184] 1
x[185] 1
x[186] 1
x[187] 1
x[188] 1
x[189] 1
x[190] 0
x[191] 1
x[192] 1
x[193] 1
x[194] 0
x[195] 0
x[196] 0
x[197] 1
x[198] 1
x[199] 0
x[200] 1
x[201] 1
x[202] 0
x[203] 0
x[204] 1
x[205] 1
x[206] 0
x[207] 0
x[208] 0
x[209] 0
x[210] 1
x[211] 1
x[212] 1
x[213] 0
x[214] 1
x[215] 1
x[216] 1
x[217] 1
x[218] 1
x[219] 1
x[220] 0
x[221] 1
x[222] 0
x[223] 0
x[224] 0
x[225] 0
x[226] 1
x[227] 1
x[228] 0
x[229] 1
x[230] 1
x[231] 1
x[232] 0
x[233] 0
x[234] 0
x[235] 1
x[236] 1
x[237] 0
x[238] 1
x[239] 0
x[240] 1
x[241] 0
x[242] 1
x[243] 1
x[244] 1
x[245] 0
x[246] 0
x[247] 1
x[248] 0
x[249] 1
x[250] 1
x[251] 1
x[252] 1
x[253] 0
x[254] 1
x[255] 1
x[256] 0
x[257] 0
x[258] 1
x[259] 1
x[260] 1
x[261] 1
x[262] 1
x[263] 1
x[264] 1
x[265] 0
x[266] 1
x[267] 1
x[268] 0
x[269] 0
x[270] 0
x[271] 0
x[272] 1
x[273] 1
x[274] 0
x[275] 0
x[276] 1
x[277] 1
x[278] 0
x[279] 0
x[280] 1
x[281] 0
x[282] 1
x[283] 0
x[284] 0
x[285] 1
x[286] 0
x[287] 1
x[288] 0
x[289] 1
x[290] 1
x[291] 1
x[292] 0
x[293] 0
x[294] 0
x[295] 0
x[296] 0
x[297] 0
x[298] 1
x[299] 1
x[300] 0
x[301] 1
x[302] 0
x[303] 0
x[304] 0
x[305] 1
x[306] 1
x[307] 0
x[308] 1
x[309] 0
x[310] 0
x[311] 0
x[312] 0
x[313] 1
x[314] 0
x[315] 1
x[316] 1
x[317] 1
x[318] 0
x[319] 0
x[320] 0
x[321] 0
x[322] 1
x[323] 0
x[324] 0
x[325] 1
x[326] 1
x[327] 0
x[328] 1
x[329] 1
x[330] 1
x[331] 1
x[332] 0
x[333] 1
x[334] 1
x[335] 1
x[336] 1
x[337] 0
x[338] 1
x[339] 1
x[340] 0
x[341] 1
x[342] 1
x[343] 1
x[344] 1
x[345] 1
x[346] 0
x[347] 0
x[348] 1
x[349] 0
x[350] 1
x[351] 0
x[352] 0
x[353] 1
x[354] 1
x[355] 0
x[356] 1
x[357] 0
x[358] 0
x[359] 0
x[360] 0
x[361] 1
x[362] 1
x[363] 1
x[364] 1
x[365] 1
x[366] 1
x[367] 1
x[368] 1
x[369] 1
x[370] 1
x[371] 1
x[372] 0
x[373] 1
x[374] 0
x[375] 1
x[376] 0
x[377] 1
x[378] 0
x[379] 0
x[380] 1
x[381] 0
x[382] 0
x[383] 0
x[384] 1
x[385] 0
x[386] 1
x[387] 0
x[388] 1
x[389] 1
x[390] 0
x[391] 1
x[392] 0
x[393] 0
x[394] 1
x[395] 0
x[396] 1
x[397] 1
x[398] 0
x[399] 0
x[400] 1
x[401] 1
x[402] 1
x[403] 1
x[404] 1
x[405] 0
x[406] 0
x[407] 1
x[408] 1
x[409] 1
x[410] 1
x[411] 1
x[412] 1
x[413] 1
x[414] 1
x[415] 0
x[416] 0
x[417] 0
x[418] 1
x[419] 1
x[420] 1
x[421] 1
x[422] 1
x[423] 1
x[424] 1
x[425] 0
x[426] 0
x[427] 1
x[428] 1
x[429] 0
x[430] 0
x[431] 1
x[432] 0
x[433] 1
x[434] 1
x[435] 1
x[436] 0
x[437] 0
x[438] 1
x[439] 0
x[440] 0
x[441] 1
x[442] 1
x[443] 1
x[444] 1
x[445] 1
x[446] 0
x[447] 1
x[448] 0
x[449] 0
x[450] 1
x[451] 0
x[452] 1
x[453] 1
x[454] 0
x[455] 1
x[456] 1
x[457] 1
x[458] 1
x[459] 1
x[460] 1
x[461] 1
x[462] 1
x[463] 0
x[464] 1
x[465] 1
x[466] 1
x[467] 1
x[468] 1
x[469] 0
x[470] 1
x[471] 1
x[472] 1
x[473] 0
x[474] 1
x[475] 0
x[476] 1
x[477] 0
x[478] 0
x[479] 1
x[480] 1
x[481] 0
x[482] 0
x[483] 1
x[484] 1
x[485] 0
x[486] 1
x[487] 1
x[488] 1
x[489] 1
x[490] 0
x[491] 1
x[492] 1
x[493] 1
x[494] 0
x[495] 0
x[496] 0
x[497] 0
x[498] 1
x[499] 1
x[500] 1
x[501] 1
x[502] 1
x[503] 0
x[504] 1
x[505] 0
x[506] 0
x[507] 0
x[508] 1
x[509] 1
x[510] 1
x[511] 0
x[512] 0
x[513] 0
x[514] 1
x[515] 1
x[516] 1
x[517] 0
x[518] 1
x[519] 1
x[520] 1
x[521] 1
x[522] 0
x[523] 0
x[524] 0
x[525] 1
x[526] 1
x[527] 1
x[528] 1
x[529] 0
x[530] 1
x[531] 1
x[532] 1
x[533] 0
x[534] 1
x[535] 1
x[536] 0
x[537] 0
x[538] 0
x[539] 1
x[540] 0
x[541] 0
x[542] 1
x[543] 0
x[544] 1
x[545] 1
x[546] 1
x[547] 1
x[548] 0
x[549] 1
x[550] 1
x[551] 1
x[552] 1
x[553] 1
x[554] 0
x[555] 1
x[556] 1
x[557] 0
x[558] 0
x[559] 1
x[560] 1
x[561] 1
x[562] 0
x[563] 0
x[564] 0
x[565] 0
x[566] 1
x[567] 0
x[568] 0
x[569] 1
x[570] 0
x[571] 0
x[572] 0
x[573] 1
x[574] 1
x[575] 1
x[576] 0
x[577] 1
x[578] 1
x[579] 1
x[580] 0
x[581] 0
x[582] 1
x[583] 1
x[584] 1
x[585] 1
x[586] 0
x[587] 1
x[588] 1
x[589] 1
x[590] 1
x[591] 0
x[592] 0
x[593] 0
x[594] 0
x[595] 1
x[596] 0
x[597] 0
x[598] 1
x[599] 0
x[600] 1
x[601] 0
x[602] 0
x[603] 0
x[604] 1
x[605] 1
x[606] 1
x[607] 1
x[608] 1
x[609] 1
x[610] 1
x[611] 1
x[612] 0
x[613] 1
x[614] 1
x[615] 0
x[616] 0
x[617] 0
x[618] 1
x[619] 1
x[620] 1
x[621] 1
x[622] 1
x[623] 0
x[624] 0
x[625] 0
x[626] 0
x[627] 1
x[628] 1
x[629] 1
x[630] 1
x[631] 0
x[632] 1
x[633] 1
x[634] 1
x[635] 0
x[636] 1
x[637] 0
x[638] 1
x[639] 0
x[640] 0
x[641] 0
x[642] 0
x[643] 1
x[644] 0
x[645] 0
x[646] 1
x[647] 1
x[648] 0
x[649] 0
x[650] 1
x[651] 1
x[652] 1
x[653] 1
x[654] 0
x[655] 1
x[656] 0
x[657] 0
x[658] 0
x[659] 1
x[660] 1
x[661] 1
x[662] 1
x[663] 0
x[664] 1
x[665] 1
x[666] 0
x[667] 0
x[668] 0
x[669] 0
x[670] 1
x[671] 1
x[672] 1
x[673] 1
x[674] 1
x[675] 0
x[676] 0
x[677] 0
x[678] 0
x[679] 1
x[680] 0
x[681] 1
x[682] 1
x[683] 0
x[684] 0
x[685] 0
x[686] 1
x[687] 1
x[688] 1
x[689] 0
x[690] 1
x[691] 1
x[692] 0
x[693] 0
x[694] 1
x[695] 1
x[696] 0
x[697] 0
x[698] 0
x[699] 1
x[700] 1
x[701] 0
x[702] 0
x[703] 1
x[704] 1
x[705] 1
x[706] 1
x[707] 1
x[708] 1
x[709] 1
x[710] 0
x[711] 1
x[712] 1
x[713] 0
x[714] 1
x[715] 1
x[716] 0
x[717] 1
x[718] 1
x[719] 1
x[720] 0
x[721] 0
x[722] 1
x[723] 1
x[724] 1
x[725] 0
x[726] 1
x[727] 0
x[728] 0
x[729] 1
x[730] 1
x[731] 1
x[732] 1
x[733] 0
x[734] 1
x[735] 1
x[736] 1
x[737] 1
x[738] 1
x[739] 0
x[740] 0
x[741] 1
x[742] 1
x[743] 0
x[744] 0
x[745] 1
x[746] 1
x[747] 0
x[748] 0
x[749] 0
x[750] 0
x[751] 1
x[752] 0
x[753] 1
x[754] 1
x[755] 1
x[756] 1
x[757] 1
x[758] 1
x[759] 1
x[760] 0
x[761] 1
x[762] 0
x[763] 0
x[764] 0
x[765] 0
x[766] 1
x[767] 1
x[768] 1
x[769] 0
x[770] 1
x[771] 1
x[772] 0
x[773] 1
x[774] 0
x[775] 0
x[776] 0
x[777] 0
x[778] 1
x[779] 0
x[780] 0
x[781] 0
x[782] 0
x[783] 1
x[784] 0
x[785] 1
x[786] 0
x[787] 1
x[788] 1
x[789] 1
x[790] 0
x[791] 1
x[792] 1
x[793] 1
x[794] 0
x[795] 1
x[796] 1
x[797] 1
x[798] 1
x[799] 1
x[800] 1
x[801] 1
x[802] 0
x[803] 1
x[804] 1
x[805] 1
x[806] 0
x[807] 1
x[808] 1
x[809] 0
x[810] 1
x[811] 1
x[812] 1
x[813] 0
x[814] 1
x[815] 0
x[816] 1
x[817] 0
x[818] 1
x[819] 1
x[820] 1
x[821] 1
x[822] 0
x[823] 1
x[824] 1
x[825] 0
x[826] 0
x[827] 1
x[828] 1
x[829] 0
x[830] 0
x[831] 1
x[832] 0
x[833] 1
x[834] 1
x[835] 1
x[836] 0
x[837] 1
x[838] 0
x[839] 1
x[840] 0
x[841] 1
x[842] 0
x[843] 0
x[844] 1
x[845] 0
x[846] 1
x[847] 1
x[848] 1
x[849] 1
x[850] 0
x[851] 0
x[852] 1
x[853] 0
x[854] 0
x[855] 0
x[856] 1
x[857] 0
x[858] 1
x[859] 0
x[860] 1
x[861] 0
x[862] 1
x[863] 1
x[864] 0
x[865] 1
x[866] 0
x[867] 0
x[868] 0
x[869] 1
x[870] 1
x[871] 0
x[872] 0
x[873] 0
x[874] 1
x[875] 1
x[876] 1
x[877] 1
x[878] 1
x[879] 1
x[880] 1
x[881] 0
x[882] 0
x[883] 1
x[884] 0
x[885] 0
x[886] 0
x[887] 0
x[888] 1
x[889] 1
x[890] 0
x[891] 1
x[892] 1
x[893] 0
x[894] 1
x[895] 1
x[896] 1
x[897] 1
x[898] 1
x[899] 0
x[900] 1
x[901] 0
x[902] 1
x[903] 0
x[904] 1
x[905] 1
x[906] 1
x[907] 0
x[908] 0
x[909] 0
x[910] 1
x[911] 1
x[912] 1
x[913] 0
x[914] 1
x[915] 0
x[916] 1
x[917] 0
x[918] 0
x[919] 0
x[920] 0
x[921] 1
x[922] 0
x[923] 1
x[924] 0
x[925] 0
x[926] 0
x[927] 0
x[928] 0
x[929] 1
x[930] 1
x[931] 1
x[932] 0
x[933] 0
x[934] 0
x[935] 0
x[936] 1
x[937] 1
x[938] 1
x[939] 0
x[940] 0
x[941] 1
x[942] 1
x[943] 0
x[944] 0
x[945] 1
x[946] 1
x[947] 1
x[948] 0
x[949] 1
x[950] 1
x[951] 0
x[952] 0
x[953] 1
x[954] 0
x[955] 1
x[956] 0
x[957] 0
x[958] 1
x[959] 1
x[960] 1
x[961] 1
x[962] 1
x[963] 1
x[964] 1
x[965] 1
x[966] 1
x[967] 0
x[968] 0
x[969] 1
x[970] 1
x[971] 0
x[972] 1
x[973] 1
x[974] 0
x[975] 1
x[976] 1
x[977] 1
x[978] 1
x[979] 0
x[980] 1
x[981] 1
x[982] 0
x[983] 1
x[984] 1
x[985] 0
x[986] 0
x[987] 1
x[988] 1
x[989] 1
x[990] 1
x[991] 1
x[992] 1
x[993] 1
x[994] 0
x[995] 0
x[996] 0
x[997] 1
x[998] 1
x[999] 0
